5 5
1 6 0 6 3 52 2 15 4 68
3 57 2 56 1 7 0 51 4 58
2 64 3 26 1 58 4 31 0 66
2 92 1 13 3 18 0 94 4 75
4 13 3 24 1 57 2 29 0 56
-1
0 1 2 3 5
0 1 2 3 5
0 1 3 5
0 1 4 5
0 1 2 4 5
-2
7 17 67 174
57 147 159 342
72 205 377
126 227 377
15 46 195 263

407 12
1 18 8 24 14
0 16 22 7 12
15 3 10 6 23
2 5 17 21 11
20 4 19 13 9
